phonon calc
&inputph
outdir='./'
prefix='graphene_re'
recover=.true.
fildyn='ggg.dyn'
/
0.0 0.0 0.0
